BAYES
37
2 3 3 2 3 2 3 2 3 3 2 3 2 2 3 4 2 4 2 3 3 3 2 2 3 4 2 3 4 4 4 4 3 2 3 3 3
37
2 5 0
2 4 1
2 4 2
1 3
3 3 5 4
1 5
3 3 5 6
1 7
3 7 34 8
3 10 34 9
1 10
3 10 34 11
1 12
1 13
2 13 14
3 32 30 15
1 16
3 24 30 17
1 18
3 18 31 19
3 19 23 20
2 22 21
1 22
3 24 22 23
1 24
4 24 16 29 25
1 26
1 27
2 27 28
3 26 28 29
4 24 16 29 30
3 24 30 31
2 31 32
5 32 12 20 14 33
2 33 34
3 34 6 35
3 35 14 36

4
0.9 0.1 0.01 0.99
9
0.95 0.04 0.01 0.04 0.95 0.01 0.01 0.29 0.7
9
0.95 0.04 0.01 0.04 0.95 0.01 0.01 0.04 0.95
2
0.2 0.8
12
0.95 0.04 0.01 0.98 0.01 0.01 0.01 0.09 0.9 0.05 0.9 0.05
2
0.05 0.95
12
0.98 0.01 0.01 0.95 0.04 0.01 0.5 0.49 0.01 0.05 0.9 0.05
2
0.05 0.95
18
0.98 0.01 0.01 0.4 0.59 0.01 0.3 0.4 0.3 0.98 0.01 0.01 0.01 0.98 0.01 0.01 0.01 0.98
18
0.3333333 0.3333333 0.3333333 0.3333333 0.3333333 0.3333333 0.3333333 0.3333333 0.3333333 0.98 0.01 0.01 0.01 0.98 0.01 0.01 0.01 0.98
2
0.1 0.9
18
0.3333333 0.3333333 0.3333333 0.3333333 0.3333333 0.3333333 0.3333333 0.3333333 0.3333333 0.98 0.01 0.01 0.01 0.98 0.01 0.01 0.01 0.98
2
0.1 0.9
2
0.01 0.99
6
0.98 0.01 0.01 0.3 0.4 0.3
48
0.97 0.01 0.01 0.01 0.01 0.97 0.01 0.01 0.01 0.97 0.01 0.01 0.01 0.97 0.01 0.01 0.97 0.01 0.01 0.01 0.01 0.01 0.97 0.01 0.01 0.01 0.97 0.01 0.01 0.01 0.97 0.01 0.97 0.01 0.01 0.01 0.01 0.01 0.01 0.97 0.01 0.01 0.01 0.97 0.01 0.01 0.01 0.97
2
0.04 0.96
48
0.97 0.01 0.01 0.01 0.01 0.97 0.01 0.01 0.01 0.01 0.97 0.01 0.01 0.01 0.01 0.97 0.97 0.01 0.01 0.01 0.6 0.38 0.01 0.01 0.5 0.48 0.01 0.01 0.5 0.48 0.01 0.01 0.97 0.01 0.01 0.01 0.01 0.97 0.01 0.01 0.01 0.01 0.97 0.01 0.01 0.01 0.01 0.97
2
0.05 0.95
24
1.0 0.0 0.0 0.99 0.01 0.0 0.95 0.04 0.01 0.95 0.04 0.01 1.0 0.0 0.0 0.95 0.04 0.01 0.01 0.95 0.04 0.01 0.01 0.98
18
0.98 0.01 0.01 0.01 0.98 0.01 0.01 0.01 0.98 0.98 0.01 0.01 0.98 0.01 0.01 0.69 0.3 0.01
6
0.01 0.19 0.8 0.05 0.9 0.05
2
0.01 0.99
12
0.1 0.9 0.1 0.9 0.01 0.99 0.95 0.05 0.95 0.05 0.05 0.95
3
0.92 0.03 0.05
96
0.97 0.01 0.01 0.01 0.01 0.3 0.49 0.2 0.01 0.01 0.08 0.9 0.01 0.01 0.01 0.97 0.97 0.01 0.01 0.01 0.1 0.84 0.05 0.01 0.05 0.25 0.25 0.45 0.01 0.15 0.25 0.59 0.97 0.01 0.01 0.01 0.01 0.29 0.3 0.4 0.01 0.01 0.08 0.9 0.01 0.01 0.01 0.97 0.97 0.01 0.01 0.01 0.01 0.97 0.01 0.01 0.01 0.01 0.97 0.01 0.01 0.01 0.01 0.97 0.97 0.01 0.01 0.01 0.4 0.58 0.01 0.01 0.2 0.75 0.04 0.01 0.2 0.7 0.09 0.01 0.97 0.01 0.01 0.01 0.01 0.9 0.08 0.01 0.01 0.01 0.38 0.6 0.01 0.01 0.01 0.97
2
0.1 0.9
3
0.05 0.9 0.05
12
0.05 0.93 0.01 0.01 0.05 0.01 0.93 0.01 0.05 0.01 0.01 0.93
32
0.97 0.01 0.01 0.01 0.97 0.01 0.01 0.01 0.97 0.01 0.01 0.01 0.97 0.01 0.01 0.01 0.97 0.01 0.01 0.01 0.01 0.97 0.01 0.01 0.01 0.01 0.97 0.01 0.01 0.01 0.01 0.97
96
0.97 0.01 0.01 0.01 0.95 0.03 0.01 0.01 0.4 0.58 0.01 0.01 0.3 0.68 0.01 0.01 0.97 0.01 0.01 0.01 0.97 0.01 0.01 0.01 0.97 0.01 0.01 0.01 0.97 0.01 0.01 0.01 0.97 0.01 0.01 0.01 0.95 0.03 0.01 0.01 0.5 0.48 0.01 0.01 0.3 0.68 0.01 0.01 0.97 0.01 0.01 0.01 0.01 0.97 0.01 0.01 0.01 0.01 0.97 0.01 0.01 0.01 0.01 0.97 0.97 0.01 0.01 0.01 0.97 0.01 0.01 0.01 0.97 0.01 0.01 0.01 0.97 0.01 0.01 0.01 0.97 0.01 0.01 0.01 0.01 0.97 0.01 0.01 0.01 0.01 0.97 0.01 0.01 0.01 0.01 0.97
48
0.97 0.01 0.01 0.01 0.01 0.97 0.01 0.01 0.01 0.01 0.97 0.01 0.01 0.01 0.01 0.97 0.97 0.01 0.01 0.01 0.01 0.97 0.01 0.01 0.01 0.01 0.97 0.01 0.01 0.01 0.01 0.97 0.97 0.01 0.01 0.01 0.03 0.95 0.01 0.01 0.01 0.94 0.04 0.01 0.01 0.88 0.1 0.01
12
0.01 0.01 0.98 0.01 0.01 0.98 0.04 0.92 0.04 0.9 0.09 0.01
108
0.01 0.99 0.01 0.99 0.01 0.99 0.01 0.99 0.01 0.99 0.01 0.99 0.01 0.99 0.01 0.99 0.01 0.99 0.01 0.99 0.01 0.99 0.01 0.99 0.01 0.99 0.01 0.99 0.01 0.99 0.05 0.95 0.05 0.95 0.01 0.99 0.01 0.99 0.01 0.99 0.01 0.99 0.05 0.95 0.05 0.95 0.01 0.99 0.05 0.95 0.05 0.95 0.01 0.99 0.05 0.95 0.05 0.95 0.01 0.99 0.05 0.95 0.05 0.95 0.01 0.99 0.05 0.95 0.05 0.95 0.01 0.99 0.7 0.3 0.7 0.3 0.1 0.9 0.7 0.3 0.7 0.3 0.1 0.9 0.7 0.3 0.7 0.3 0.1 0.9 0.95 0.05 0.99 0.01 0.3 0.7 0.95 0.05 0.99 0.01 0.3 0.7 0.95 0.05 0.99 0.01 0.3 0.7
6
0.05 0.9 0.05 0.01 0.09 0.9
27
0.98 0.01 0.01 0.95 0.04 0.01 0.8 0.19 0.01 0.95 0.04 0.01 0.04 0.95 0.01 0.01 0.04 0.95 0.3 0.69 0.01 0.01 0.3 0.69 0.01 0.01 0.98
27
0.98 0.01 0.01 0.98 0.01 0.01 0.9 0.09 0.01 0.98 0.01 0.01 0.1 0.85 0.05 0.05 0.2 0.75 0.3 0.6 0.1 0.05 0.4 0.55 0.01 0.09 0.9